10
0 559 7812 4138 6499 9820 2844 6268 739 2948
706 0 152 1536 2582 2533 8920 8557 8508 1332
8039 4718 0 6892 872 1798 7313 134 1454 6821
2376 4120 3665 0 5939 7083 8091 7581 4229 7923
6291 8832 6446 5466 0 6048 2884 1686 5795 719
6626 3069 6494 8998 1588 0 8632 8612 3603 8549
8355 9530 7555 5562 2062 6811 0 5472 8202 5399
127 3476 3322 2964 3812 3431 6313 0 2974 1122
5351 3281 2609 9762 7078 5526 3747 3561 0 5812
2146 7212 6412 5900 250 5085 2861 3356 1148 0